561337 15865.1
540832 35656.9
5131.86 592256
319526 281820
72269.9 556760
267878 336332
355682 222443
74052.1 551786
543343 34934.6
453986 158129
363213 216526
484269 117142
361739 218531
224045 368675
362721 218291
554071 29934.8
554596 26471.9
296546 294199
560101 22085.2
114064 473652
15311.8 571873
186545 415418
558718 23789.2
376045 214203
422653 193692
278632 326101
558211 25620.7
318925 283401
433853 163711
100883 493996
274727 330805
214306 379058
214741 378939
461542 151858
115911 472099
170523 444196
214076 383616
463821 124398
5519.59 579941
410469 199757
293105 295118
420354 194913
10963.8 576349
432525 167565
477652 117166
192253 394053
166128 462880
176410 438524
288240 314136
403892 209868
442448 160947
183955 424342
552674 33725.4
286075 317494
466167 121896
375400 215465
290813 298609
169607 448746
211112 384971
72280.2 553433
